c Random generated cnf formula, satisfiable: true
p cnf 10 50
-2 4 -1 0
-3 -8 1 0
-4 -10 -8 0
1 7 4 0
10 -4 -7 0
7 -8 5 0
-10 -6 -3 0
9 -8 -4 0
6 -5 9 0
-8 -5 -1 0
-9 -6 -3 0
8 9 7 0
-5 6 4 0
-4 -10 -6 0
7 -9 5 0
-4 10 1 0
9 -10 2 0
-3 -4 -9 0
7 3 6 0
10 -6 -9 0
-9 -4 7 0
3 1 2 0
-10 1 -2 0
5 -10 9 0
-6 -7 -10 0
-6 -5 7 0
-7 -3 -5 0
8 7 5 0
-5 7 -3 0
-8 9 4 0
5 -3 -9 0
-8 -5 4 0
2 8 5 0
-7 -6 -2 0
-1 9 5 0
7 6 -2 0
-7 -1 -2 0
4 2 -8 0
-5 -4 -1 0
5 9 -8 0
7 -1 2 0
-1 -2 -3 0
2 -10 -4 0
-1 10 -3 0
-1 -7 10 0
3 -6 10 0
3 4 -10 0
1 -6 -5 0
-6 8 3 0
9 1 5 0
